NAME: line_40_1
TYPE: TSP
COMMENT: line_40_1
DIMENSION: 40
EDGE_WEIGHT_TYPE: EUC_2D
NODE_COORD_SECTION
1 0.0 257.0
2 0.0 139.0
3 0.0 229.0
4 0.0 213.0
5 0.0 127.0
6 0.0 354.0
7 0.0 397.0
8 0.0 76.0
9 0.0 283.0
10 0.0 148.0
11 0.0 131.0
12 0.0 291.0
13 0.0 131.0
14 0.0 165.0
15 0.0 295.0
16 0.0 365.0
17 0.0 295.0
18 0.0 215.0
19 0.0 26.0
20 0.0 98.0
21 0.0 375.0
22 0.0 138.0
23 0.0 25.0
24 0.0 47.0
25 0.0 291.0
26 0.0 66.0
27 0.0 338.0
28 0.0 19.0
29 0.0 322.0
30 0.0 357.0
31 0.0 52.0
32 0.0 202.0
33 0.0 45.0
34 0.0 212.0
35 0.0 377.0
36 0.0 247.0
37 0.0 88.0
38 0.0 322.0
39 0.0 132.0
40 0.0 318.0
